# bulk Cu lattice

variable	x index 1
variable	y index 1
variable	z index 1

variable	xx equal 80*$x
variable	yy equal 40*$y
variable	zz equal 40*$z

units		metal
atom_style	atomic
processors * * * grid twolevel 56 1 2 28

lattice		fcc 3.615
#region		box block 0 ${xx} 0 ${yy} 0 ${zz}
#region		box block 0 80 0 40 0 40
region		box block 0 $(2*@LX) 0 @LY 0 @LZ
create_box	1 box
create_atoms	1 box
replicate	$x $y $z

pair_style	eam
pair_coeff	1 1 ../../../../potentials/Cu_u3.eam

velocity	all create 1600.0 376847 loop geom

neighbor	1.0 bin
neigh_modify    every 1 delay 5 check yes

fix		1 all nve

timestep	0.005
thermo		50

run		50000
