# 3d Lennard-Jones melt

variable	x index 1
variable	y index 1
variable	z index 1

variable	xx equal 80*$x
variable	yy equal 40*$y
variable	zz equal 40*$z

units		lj
atom_style	atomic
processors * * * grid twolevel 56 1 2 28

lattice		fcc 0.8442
#region		box block 0 ${xx} 0 ${yy} 0 ${zz}
#region		box block 0 80 0 40 0 40
region		box block 0 $(2*@LX) 0 @LY 0 @LZ
create_box	1 box
create_atoms	1 box
mass		1 1.0
replicate	$x $y $z

velocity	all create 1.44 87287 loop geom

pair_style	lj/cut 2.5
pair_coeff	1 1 1.0 1.0 2.5

neighbor	0.3 bin
neigh_modify	delay 0 every 20 check no

fix		1 all nve

run		50000
