# bulk Si via Tersoff

variable	x index 1
variable	y index 1
variable	z index 1

variable	xx equal 40*$x
variable	yy equal 40*$y
variable	zz equal 40*$z

units		metal
atom_style	atomic
processors * * * grid twolevel 56 1 2 28

lattice		diamond 5.431
#region		box block 0 ${xx} 0 ${yy} 0 ${zz}
#region		box block 0 80 0 40 0 40
region		box block 0 @LX 0 @LY 0 @LZ
create_box	1 box
create_atoms	1 box
replicate	$x $y $z

pair_style	tersoff
pair_coeff	* * ../../../../potentials/Si.tersoff Si
mass            1 28.06

velocity	all create 1000.0 376847 loop geom

neighbor	1.0 bin
neigh_modify    delay 5 every 1

fix		1 all nve

timestep	0.001

run		50000
